NAME : tsp_54_sol.txt
COMMENT : OR-Tools Guided Local Search
TYPE : TOUR
DIMENSION : 50
COST : 5347
STATUS : ROUTING_SUCCESS
GAP : 0.00% (Reference Solution)
TOUR_SECTION
1
6
17
32
38
34
25
11
45
2
13
31
39
35
5
19
37
50
9
27
4
28
43
24
30
46
7
18
16
22
48
8
15
33
42
12
44
49
20
21
36
47
41
40
10
29
3
26
23
14
-1
